NAME: cluster25
TYPE: TSP
COMMENT: Test dataset with 25 cities (cluster pattern)
DIMENSION: 25
EDGE_WEIGHT_TYPE: EUC_2D
NODE_COORD_SECTION
1 23.259441 45.190228
2 28.474866 43.997076
3 21.360339 38.283806
4 20.591358 46.370250
5 30.612056 67.318485
6 24.188160 77.010296
7 22.866203 66.798688
8 17.809137 63.852896
9 44.753848 45.351692
10 57.904061 50.181468
11 52.529187 43.930967
12 49.556069 42.751103
13 27.961698 76.756511
14 28.459622 78.850417
15 32.403805 75.893062
16 18.907954 76.314483
17 68.190386 38.529208
18 78.746863 38.640946
19 78.354813 41.748267
20 82.349762 31.500759
21 48.806553 29.798193
22 40.956903 34.670007
23 39.235850 32.378519
24 48.451961 32.486566
25 45.291690 26.013522
EOF
